% Auto-generated by scripts/generate_dzn.py
% problem_type   = polyominoes
% instance       = polyominoes_50
% source_json    = instances_json/0_low_blowup/polyominoes_50.json
% blowup         = 0.6805251641137856
% representation = DFA

mode = 0;

size = 8;
tiles = 2;
n_expressions = 2;
Q = 250;
S = 3;
q0 = [1, 1];
F = [{13}, {243}];
d_dfa = array3d(1..2, 1..250, 1..3, [
  % k = 1
    2, 1, 1,
    3, 4, 4,
    5, 61, 61,
    61, 6, 6,
    7, 61, 61,
    61, 8, 8,
    9, 61, 61,
    61, 10, 10,
    11, 61, 61,
    61, 12, 12,
    13, 61, 61,
    61, 14, 14,
    61, 13, 13,
    61, 15, 15,
    61, 16, 16,
    17, 61, 61,
    61, 18, 18,
    61, 19, 19,
    61, 20, 20,
    61, 21, 21,
    61, 22, 22,
    61, 23, 23,
    61, 24, 24,
    61, 25, 25,
    26, 61, 61,
    61, 27, 27,
    61, 28, 28,
    61, 29, 29,
    61, 30, 30,
    61, 31, 31,
    61, 32, 32,
    61, 33, 33,
    61, 34, 34,
    35, 61, 61,
    61, 36, 36,
    61, 37, 37,
    61, 38, 38,
    61, 39, 39,
    61, 40, 40,
    61, 41, 41,
    61, 42, 42,
    61, 43, 43,
    44, 61, 61,
    61, 45, 45,
    61, 46, 46,
    61, 47, 47,
    61, 48, 48,
    61, 49, 49,
    61, 50, 50,
    61, 51, 51,
    61, 52, 52,
    53, 61, 61,
    61, 54, 54,
    61, 55, 55,
    61, 56, 56,
    61, 57, 57,
    61, 58, 58,
    61, 59, 59,
    61, 60, 60,
    61, 11, 11,
    61, 61, 61,
    0, 0, 0,
    0, 0, 0,
    0, 0, 0,
    0, 0, 0,
    0, 0, 0,
    0, 0, 0,
    0, 0, 0,
    0, 0, 0,
    0, 0, 0,
    0, 0, 0,
    0, 0, 0,
    0, 0, 0,
    0, 0, 0,
    0, 0, 0,
    0, 0, 0,
    0, 0, 0,
    0, 0, 0,
    0, 0, 0,
    0, 0, 0,
    0, 0, 0,
    0, 0, 0,
    0, 0, 0,
    0, 0, 0,
    0, 0, 0,
    0, 0, 0,
    0, 0, 0,
    0, 0, 0,
    0, 0, 0,
    0, 0, 0,
    0, 0, 0,
    0, 0, 0,
    0, 0, 0,
    0, 0, 0,
    0, 0, 0,
    0, 0, 0,
    0, 0, 0,
    0, 0, 0,
    0, 0, 0,
    0, 0, 0,
    0, 0, 0,
    0, 0, 0,
    0, 0, 0,
    0, 0, 0,
    0, 0, 0,
    0, 0, 0,
    0, 0, 0,
    0, 0, 0,
    0, 0, 0,
    0, 0, 0,
    0, 0, 0,
    0, 0, 0,
    0, 0, 0,
    0, 0, 0,
    0, 0, 0,
    0, 0, 0,
    0, 0, 0,
    0, 0, 0,
    0, 0, 0,
    0, 0, 0,
    0, 0, 0,
    0, 0, 0,
    0, 0, 0,
    0, 0, 0,
    0, 0, 0,
    0, 0, 0,
    0, 0, 0,
    0, 0, 0,
    0, 0, 0,
    0, 0, 0,
    0, 0, 0,
    0, 0, 0,
    0, 0, 0,
    0, 0, 0,
    0, 0, 0,
    0, 0, 0,
    0, 0, 0,
    0, 0, 0,
    0, 0, 0,
    0, 0, 0,
    0, 0, 0,
    0, 0, 0,
    0, 0, 0,
    0, 0, 0,
    0, 0, 0,
    0, 0, 0,
    0, 0, 0,
    0, 0, 0,
    0, 0, 0,
    0, 0, 0,
    0, 0, 0,
    0, 0, 0,
    0, 0, 0,
    0, 0, 0,
    0, 0, 0,
    0, 0, 0,
    0, 0, 0,
    0, 0, 0,
    0, 0, 0,
    0, 0, 0,
    0, 0, 0,
    0, 0, 0,
    0, 0, 0,
    0, 0, 0,
    0, 0, 0,
    0, 0, 0,
    0, 0, 0,
    0, 0, 0,
    0, 0, 0,
    0, 0, 0,
    0, 0, 0,
    0, 0, 0,
    0, 0, 0,
    0, 0, 0,
    0, 0, 0,
    0, 0, 0,
    0, 0, 0,
    0, 0, 0,
    0, 0, 0,
    0, 0, 0,
    0, 0, 0,
    0, 0, 0,
    0, 0, 0,
    0, 0, 0,
    0, 0, 0,
    0, 0, 0,
    0, 0, 0,
    0, 0, 0,
    0, 0, 0,
    0, 0, 0,
    0, 0, 0,
    0, 0, 0,
    0, 0, 0,
    0, 0, 0,
    0, 0, 0,
    0, 0, 0,
    0, 0, 0,
    0, 0, 0,
    0, 0, 0,
    0, 0, 0,
    0, 0, 0,
    0, 0, 0,
    0, 0, 0,
    0, 0, 0,
    0, 0, 0,
    0, 0, 0,
    0, 0, 0,
    0, 0, 0,
    0, 0, 0,
    0, 0, 0,
    0, 0, 0,
    0, 0, 0,
    0, 0, 0,
    0, 0, 0,
    0, 0, 0,
    0, 0, 0,
    0, 0, 0,
    0, 0, 0,
    0, 0, 0,
    0, 0, 0,
    0, 0, 0,
    0, 0, 0,
    0, 0, 0,
    0, 0, 0,
    0, 0, 0,
    0, 0, 0,
    0, 0, 0,
    0, 0, 0,
    0, 0, 0,
    0, 0, 0,
    0, 0, 0,
    0, 0, 0,
    0, 0, 0,
    0, 0, 0,
    0, 0, 0,
    0, 0, 0,
    0, 0, 0,
    0, 0, 0,
    0, 0, 0,
    0, 0, 0,
    0, 0, 0,
    0, 0, 0,
    0, 0, 0,
    0, 0, 0,
    0, 0, 0,
    0, 0, 0,
    0, 0, 0,
    0, 0, 0,
    0, 0, 0,
    0, 0, 0,

  % k = 2
    1, 2, 1,
    3, 4, 3,
    5, 6, 5,
    250, 7, 250,
    8, 250, 8,
    250, 9, 250,
    250, 10, 250,
    11, 250, 11,
    250, 12, 250,
    250, 13, 250,
    14, 250, 14,
    250, 15, 250,
    250, 16, 250,
    17, 250, 17,
    250, 18, 250,
    250, 19, 250,
    20, 250, 20,
    250, 21, 250,
    22, 23, 22,
    24, 250, 24,
    250, 25, 250,
    26, 250, 26,
    27, 250, 27,
    250, 6, 250,
    250, 28, 250,
    250, 29, 250,
    30, 31, 30,
    32, 250, 32,
    250, 33, 250,
    250, 34, 250,
    250, 35, 250,
    250, 36, 250,
    250, 37, 250,
    250, 38, 250,
    250, 39, 250,
    250, 40, 250,
    250, 41, 250,
    250, 42, 250,
    250, 43, 250,
    250, 44, 250,
    250, 45, 250,
    250, 46, 250,
    250, 47, 250,
    250, 48, 250,
    250, 49, 250,
    250, 50, 250,
    250, 51, 250,
    250, 52, 250,
    250, 53, 250,
    250, 54, 250,
    250, 55, 250,
    250, 56, 250,
    57, 250, 57,
    250, 58, 250,
    59, 60, 59,
    250, 61, 250,
    62, 250, 62,
    59, 250, 59,
    63, 250, 63,
    64, 250, 64,
    250, 65, 250,
    250, 66, 250,
    250, 67, 250,
    250, 68, 250,
    69, 250, 69,
    250, 70, 250,
    250, 71, 250,
    250, 72, 250,
    250, 73, 250,
    250, 74, 250,
    250, 75, 250,
    250, 76, 250,
    250, 77, 250,
    250, 78, 250,
    250, 79, 250,
    250, 80, 250,
    250, 81, 250,
    250, 82, 250,
    250, 83, 250,
    250, 84, 250,
    250, 85, 250,
    250, 86, 250,
    250, 87, 250,
    250, 88, 250,
    250, 89, 250,
    250, 90, 250,
    250, 91, 250,
    250, 92, 250,
    250, 93, 250,
    94, 250, 94,
    95, 250, 95,
    250, 96, 250,
    250, 97, 250,
    98, 250, 98,
    99, 250, 99,
    100, 250, 100,
    250, 101, 250,
    250, 102, 250,
    250, 103, 250,
    250, 104, 250,
    105, 250, 105,
    250, 106, 250,
    250, 107, 250,
    250, 108, 250,
    250, 109, 250,
    250, 110, 250,
    250, 111, 250,
    250, 112, 250,
    250, 113, 250,
    250, 114, 250,
    250, 115, 250,
    250, 116, 250,
    250, 117, 250,
    250, 118, 250,
    250, 119, 250,
    250, 120, 250,
    250, 121, 250,
    250, 122, 250,
    250, 123, 250,
    250, 124, 250,
    250, 125, 250,
    250, 126, 250,
    250, 127, 250,
    250, 128, 250,
    250, 129, 250,
    130, 250, 130,
    131, 250, 131,
    250, 132, 250,
    250, 133, 250,
    134, 250, 134,
    135, 250, 135,
    136, 250, 136,
    250, 137, 250,
    250, 138, 250,
    250, 139, 250,
    250, 140, 250,
    141, 250, 141,
    250, 142, 250,
    250, 143, 250,
    250, 144, 250,
    250, 145, 250,
    250, 146, 250,
    250, 147, 250,
    250, 148, 250,
    250, 149, 250,
    250, 150, 250,
    250, 151, 250,
    250, 152, 250,
    250, 153, 250,
    250, 154, 250,
    250, 155, 250,
    250, 156, 250,
    250, 157, 250,
    250, 158, 250,
    250, 159, 250,
    250, 160, 250,
    250, 161, 250,
    250, 162, 250,
    250, 163, 250,
    250, 164, 250,
    250, 165, 250,
    166, 250, 166,
    167, 250, 167,
    250, 168, 250,
    250, 169, 250,
    170, 250, 170,
    171, 250, 171,
    172, 250, 172,
    250, 173, 250,
    250, 174, 250,
    250, 175, 250,
    250, 176, 250,
    177, 250, 177,
    250, 178, 250,
    250, 179, 250,
    250, 180, 250,
    250, 181, 250,
    250, 182, 250,
    250, 183, 250,
    250, 184, 250,
    250, 185, 250,
    250, 186, 250,
    250, 187, 250,
    250, 188, 250,
    250, 189, 250,
    250, 190, 250,
    250, 191, 250,
    250, 192, 250,
    250, 193, 250,
    250, 194, 250,
    250, 195, 250,
    250, 196, 250,
    250, 197, 250,
    250, 198, 250,
    250, 199, 250,
    250, 200, 250,
    250, 201, 250,
    202, 250, 202,
    203, 250, 203,
    250, 204, 250,
    250, 205, 250,
    206, 250, 206,
    207, 250, 207,
    208, 250, 208,
    250, 209, 250,
    250, 210, 250,
    250, 211, 250,
    250, 212, 250,
    213, 250, 213,
    250, 214, 250,
    250, 215, 250,
    250, 216, 250,
    250, 217, 250,
    250, 218, 250,
    250, 219, 250,
    250, 220, 250,
    250, 221, 250,
    250, 222, 250,
    250, 223, 250,
    250, 224, 250,
    250, 225, 250,
    250, 226, 250,
    250, 227, 250,
    250, 228, 250,
    250, 229, 250,
    250, 230, 250,
    250, 231, 250,
    250, 232, 250,
    250, 233, 250,
    250, 234, 250,
    250, 235, 250,
    250, 236, 250,
    250, 237, 250,
    238, 250, 238,
    239, 250, 239,
    250, 240, 250,
    250, 241, 250,
    213, 217, 213,
    217, 250, 217,
    242, 250, 242,
    250, 243, 250,
    244, 243, 244,
    243, 250, 243,
    245, 250, 245,
    246, 250, 246,
    247, 250, 247,
    248, 250, 248,
    249, 250, 249,
    241, 250, 241,
    250, 250, 250
]);
d_nfa = array3d(1..2, 1..250, 1..3, [
  % k = 1
    {}, {}, {},
    {}, {}, {},
    {}, {}, {},
    {}, {}, {},
    {}, {}, {},
    {}, {}, {},
    {}, {}, {},
    {}, {}, {},
    {}, {}, {},
    {}, {}, {},
    {}, {}, {},
    {}, {}, {},
    {}, {}, {},
    {}, {}, {},
    {}, {}, {},
    {}, {}, {},
    {}, {}, {},
    {}, {}, {},
    {}, {}, {},
    {}, {}, {},
    {}, {}, {},
    {}, {}, {},
    {}, {}, {},
    {}, {}, {},
    {}, {}, {},
    {}, {}, {},
    {}, {}, {},
    {}, {}, {},
    {}, {}, {},
    {}, {}, {},
    {}, {}, {},
    {}, {}, {},
    {}, {}, {},
    {}, {}, {},
    {}, {}, {},
    {}, {}, {},
    {}, {}, {},
    {}, {}, {},
    {}, {}, {},
    {}, {}, {},
    {}, {}, {},
    {}, {}, {},
    {}, {}, {},
    {}, {}, {},
    {}, {}, {},
    {}, {}, {},
    {}, {}, {},
    {}, {}, {},
    {}, {}, {},
    {}, {}, {},
    {}, {}, {},
    {}, {}, {},
    {}, {}, {},
    {}, {}, {},
    {}, {}, {},
    {}, {}, {},
    {}, {}, {},
    {}, {}, {},
    {}, {}, {},
    {}, {}, {},
    {}, {}, {},
    {}, {}, {},
    {}, {}, {},
    {}, {}, {},
    {}, {}, {},
    {}, {}, {},
    {}, {}, {},
    {}, {}, {},
    {}, {}, {},
    {}, {}, {},
    {}, {}, {},
    {}, {}, {},
    {}, {}, {},
    {}, {}, {},
    {}, {}, {},
    {}, {}, {},
    {}, {}, {},
    {}, {}, {},
    {}, {}, {},
    {}, {}, {},
    {}, {}, {},
    {}, {}, {},
    {}, {}, {},
    {}, {}, {},
    {}, {}, {},
    {}, {}, {},
    {}, {}, {},
    {}, {}, {},
    {}, {}, {},
    {}, {}, {},
    {}, {}, {},
    {}, {}, {},
    {}, {}, {},
    {}, {}, {},
    {}, {}, {},
    {}, {}, {},
    {}, {}, {},
    {}, {}, {},
    {}, {}, {},
    {}, {}, {},
    {}, {}, {},
    {}, {}, {},
    {}, {}, {},
    {}, {}, {},
    {}, {}, {},
    {}, {}, {},
    {}, {}, {},
    {}, {}, {},
    {}, {}, {},
    {}, {}, {},
    {}, {}, {},
    {}, {}, {},
    {}, {}, {},
    {}, {}, {},
    {}, {}, {},
    {}, {}, {},
    {}, {}, {},
    {}, {}, {},
    {}, {}, {},
    {}, {}, {},
    {}, {}, {},
    {}, {}, {},
    {}, {}, {},
    {}, {}, {},
    {}, {}, {},
    {}, {}, {},
    {}, {}, {},
    {}, {}, {},
    {}, {}, {},
    {}, {}, {},
    {}, {}, {},
    {}, {}, {},
    {}, {}, {},
    {}, {}, {},
    {}, {}, {},
    {}, {}, {},
    {}, {}, {},
    {}, {}, {},
    {}, {}, {},
    {}, {}, {},
    {}, {}, {},
    {}, {}, {},
    {}, {}, {},
    {}, {}, {},
    {}, {}, {},
    {}, {}, {},
    {}, {}, {},
    {}, {}, {},
    {}, {}, {},
    {}, {}, {},
    {}, {}, {},
    {}, {}, {},
    {}, {}, {},
    {}, {}, {},
    {}, {}, {},
    {}, {}, {},
    {}, {}, {},
    {}, {}, {},
    {}, {}, {},
    {}, {}, {},
    {}, {}, {},
    {}, {}, {},
    {}, {}, {},
    {}, {}, {},
    {}, {}, {},
    {}, {}, {},
    {}, {}, {},
    {}, {}, {},
    {}, {}, {},
    {}, {}, {},
    {}, {}, {},
    {}, {}, {},
    {}, {}, {},
    {}, {}, {},
    {}, {}, {},
    {}, {}, {},
    {}, {}, {},
    {}, {}, {},
    {}, {}, {},
    {}, {}, {},
    {}, {}, {},
    {}, {}, {},
    {}, {}, {},
    {}, {}, {},
    {}, {}, {},
    {}, {}, {},
    {}, {}, {},
    {}, {}, {},
    {}, {}, {},
    {}, {}, {},
    {}, {}, {},
    {}, {}, {},
    {}, {}, {},
    {}, {}, {},
    {}, {}, {},
    {}, {}, {},
    {}, {}, {},
    {}, {}, {},
    {}, {}, {},
    {}, {}, {},
    {}, {}, {},
    {}, {}, {},
    {}, {}, {},
    {}, {}, {},
    {}, {}, {},
    {}, {}, {},
    {}, {}, {},
    {}, {}, {},
    {}, {}, {},
    {}, {}, {},
    {}, {}, {},
    {}, {}, {},
    {}, {}, {},
    {}, {}, {},
    {}, {}, {},
    {}, {}, {},
    {}, {}, {},
    {}, {}, {},
    {}, {}, {},
    {}, {}, {},
    {}, {}, {},
    {}, {}, {},
    {}, {}, {},
    {}, {}, {},
    {}, {}, {},
    {}, {}, {},
    {}, {}, {},
    {}, {}, {},
    {}, {}, {},
    {}, {}, {},
    {}, {}, {},
    {}, {}, {},
    {}, {}, {},
    {}, {}, {},
    {}, {}, {},
    {}, {}, {},
    {}, {}, {},
    {}, {}, {},
    {}, {}, {},
    {}, {}, {},
    {}, {}, {},
    {}, {}, {},
    {}, {}, {},
    {}, {}, {},
    {}, {}, {},
    {}, {}, {},
    {}, {}, {},
    {}, {}, {},
    {}, {}, {},
    {}, {}, {},

  % k = 2
    {}, {}, {},
    {}, {}, {},
    {}, {}, {},
    {}, {}, {},
    {}, {}, {},
    {}, {}, {},
    {}, {}, {},
    {}, {}, {},
    {}, {}, {},
    {}, {}, {},
    {}, {}, {},
    {}, {}, {},
    {}, {}, {},
    {}, {}, {},
    {}, {}, {},
    {}, {}, {},
    {}, {}, {},
    {}, {}, {},
    {}, {}, {},
    {}, {}, {},
    {}, {}, {},
    {}, {}, {},
    {}, {}, {},
    {}, {}, {},
    {}, {}, {},
    {}, {}, {},
    {}, {}, {},
    {}, {}, {},
    {}, {}, {},
    {}, {}, {},
    {}, {}, {},
    {}, {}, {},
    {}, {}, {},
    {}, {}, {},
    {}, {}, {},
    {}, {}, {},
    {}, {}, {},
    {}, {}, {},
    {}, {}, {},
    {}, {}, {},
    {}, {}, {},
    {}, {}, {},
    {}, {}, {},
    {}, {}, {},
    {}, {}, {},
    {}, {}, {},
    {}, {}, {},
    {}, {}, {},
    {}, {}, {},
    {}, {}, {},
    {}, {}, {},
    {}, {}, {},
    {}, {}, {},
    {}, {}, {},
    {}, {}, {},
    {}, {}, {},
    {}, {}, {},
    {}, {}, {},
    {}, {}, {},
    {}, {}, {},
    {}, {}, {},
    {}, {}, {},
    {}, {}, {},
    {}, {}, {},
    {}, {}, {},
    {}, {}, {},
    {}, {}, {},
    {}, {}, {},
    {}, {}, {},
    {}, {}, {},
    {}, {}, {},
    {}, {}, {},
    {}, {}, {},
    {}, {}, {},
    {}, {}, {},
    {}, {}, {},
    {}, {}, {},
    {}, {}, {},
    {}, {}, {},
    {}, {}, {},
    {}, {}, {},
    {}, {}, {},
    {}, {}, {},
    {}, {}, {},
    {}, {}, {},
    {}, {}, {},
    {}, {}, {},
    {}, {}, {},
    {}, {}, {},
    {}, {}, {},
    {}, {}, {},
    {}, {}, {},
    {}, {}, {},
    {}, {}, {},
    {}, {}, {},
    {}, {}, {},
    {}, {}, {},
    {}, {}, {},
    {}, {}, {},
    {}, {}, {},
    {}, {}, {},
    {}, {}, {},
    {}, {}, {},
    {}, {}, {},
    {}, {}, {},
    {}, {}, {},
    {}, {}, {},
    {}, {}, {},
    {}, {}, {},
    {}, {}, {},
    {}, {}, {},
    {}, {}, {},
    {}, {}, {},
    {}, {}, {},
    {}, {}, {},
    {}, {}, {},
    {}, {}, {},
    {}, {}, {},
    {}, {}, {},
    {}, {}, {},
    {}, {}, {},
    {}, {}, {},
    {}, {}, {},
    {}, {}, {},
    {}, {}, {},
    {}, {}, {},
    {}, {}, {},
    {}, {}, {},
    {}, {}, {},
    {}, {}, {},
    {}, {}, {},
    {}, {}, {},
    {}, {}, {},
    {}, {}, {},
    {}, {}, {},
    {}, {}, {},
    {}, {}, {},
    {}, {}, {},
    {}, {}, {},
    {}, {}, {},
    {}, {}, {},
    {}, {}, {},
    {}, {}, {},
    {}, {}, {},
    {}, {}, {},
    {}, {}, {},
    {}, {}, {},
    {}, {}, {},
    {}, {}, {},
    {}, {}, {},
    {}, {}, {},
    {}, {}, {},
    {}, {}, {},
    {}, {}, {},
    {}, {}, {},
    {}, {}, {},
    {}, {}, {},
    {}, {}, {},
    {}, {}, {},
    {}, {}, {},
    {}, {}, {},
    {}, {}, {},
    {}, {}, {},
    {}, {}, {},
    {}, {}, {},
    {}, {}, {},
    {}, {}, {},
    {}, {}, {},
    {}, {}, {},
    {}, {}, {},
    {}, {}, {},
    {}, {}, {},
    {}, {}, {},
    {}, {}, {},
    {}, {}, {},
    {}, {}, {},
    {}, {}, {},
    {}, {}, {},
    {}, {}, {},
    {}, {}, {},
    {}, {}, {},
    {}, {}, {},
    {}, {}, {},
    {}, {}, {},
    {}, {}, {},
    {}, {}, {},
    {}, {}, {},
    {}, {}, {},
    {}, {}, {},
    {}, {}, {},
    {}, {}, {},
    {}, {}, {},
    {}, {}, {},
    {}, {}, {},
    {}, {}, {},
    {}, {}, {},
    {}, {}, {},
    {}, {}, {},
    {}, {}, {},
    {}, {}, {},
    {}, {}, {},
    {}, {}, {},
    {}, {}, {},
    {}, {}, {},
    {}, {}, {},
    {}, {}, {},
    {}, {}, {},
    {}, {}, {},
    {}, {}, {},
    {}, {}, {},
    {}, {}, {},
    {}, {}, {},
    {}, {}, {},
    {}, {}, {},
    {}, {}, {},
    {}, {}, {},
    {}, {}, {},
    {}, {}, {},
    {}, {}, {},
    {}, {}, {},
    {}, {}, {},
    {}, {}, {},
    {}, {}, {},
    {}, {}, {},
    {}, {}, {},
    {}, {}, {},
    {}, {}, {},
    {}, {}, {},
    {}, {}, {},
    {}, {}, {},
    {}, {}, {},
    {}, {}, {},
    {}, {}, {},
    {}, {}, {},
    {}, {}, {},
    {}, {}, {},
    {}, {}, {},
    {}, {}, {},
    {}, {}, {},
    {}, {}, {},
    {}, {}, {},
    {}, {}, {},
    {}, {}, {},
    {}, {}, {},
    {}, {}, {},
    {}, {}, {},
    {}, {}, {},
    {}, {}, {},
    {}, {}, {},
    {}, {}, {}
]);
